language Essence 1.3

letting blksize_delta be
        function(1 --> 9, 2 --> 9, 3 --> 9, 4 --> 9, 5 --> 10, 6 --> 9, 7 --> 9, 8 --> 9, 9 --> 9, 10 --> 9, 11 --> 9,
                 12 --> 9, 13 --> 9, 14 --> 9, 15 --> 9, 16 --> 9, 17 --> 9, 18 --> 9, 19 --> 9, 20 --> 9, 21 --> 9,
                 22 --> 9)
letting maxcars be
        function(1 --> 10, 2 --> 10, 3 --> 10, 4 --> 10, 5 --> 10, 6 --> 10, 7 --> 10, 8 --> 10, 9 --> 10, 10 --> 10,
                 11 --> 10, 12 --> 10, 13 --> 10, 14 --> 10, 15 --> 10, 16 --> 10, 17 --> 10, 18 --> 10, 19 --> 10,
                 20 --> 10, 21 --> 10, 22 --> 10)
letting n_cars be 223
letting n_classes be 35
letting n_options be 22
letting quantity be
        function(1 --> 6, 2 --> 6, 3 --> 6, 4 --> 6, 5 --> 6, 6 --> 6, 7 --> 6, 8 --> 19, 9 --> 6, 10 --> 6, 11 --> 6,
                 12 --> 6, 13 --> 6, 14 --> 6, 15 --> 6, 16 --> 6, 17 --> 6, 18 --> 6, 19 --> 6, 20 --> 6, 21 --> 6,
                 22 --> 6, 23 --> 6, 24 --> 6, 25 --> 6, 26 --> 6, 27 --> 6, 28 --> 6, 29 --> 6, 30 --> 6, 31 --> 6,
                 32 --> 6, 33 --> 6, 34 --> 6, 35 --> 6)
letting usage be
        relation((1, 5), (2, 5), (2, 7), (2, 22), (3, 12), (3, 22), (4, 13), (4, 14), (5, 1), (5, 6), (6, 3), (6, 7),
                 (7, 1), (7, 4), (7, 12), (7, 22), (8, 3), (8, 8), (8, 16), (8, 21), (9, 1), (9, 8), (9, 19), (10, 4),
                 (10, 5), (10, 17), (11, 8), (11, 11), (11, 13), (11, 17), (11, 22), (12, 1), (13, 9), (13, 12),
                 (13, 13), (14, 22), (15, 21), (16, 6), (16, 12), (17, 7), (17, 13), (18, 10), (18, 14), (18, 17),
                 (19, 20), (20, 11), (21, 19), (22, 7), (22, 12), (23, 1), (23, 21), (24, 14), (24, 20), (25, 7),
                 (25, 14), (26, 2), (26, 6), (27, 2), (27, 3), (27, 5), (27, 10), (27, 12), (27, 13), (28, 22), (29, 1),
                 (29, 15), (29, 19), (30, 2), (30, 13), (30, 20), (31, 7), (31, 8), (31, 18), (32, 1), (32, 6), (33, 7),
                 (33, 8), (34, 6), (34, 9), (34, 17), (35, 22))
$ Visualisation for usage
$  1  5
$  2  5
$  2  7
$  2 22
$  3 12
$  3 22
$  4 13
$  4 14
$  5  1
$  5  6
$  6  3
$  6  7
$  7  1
$  7  4
$  7 12
$  7 22
$  8  3
$  8  8
$  8 16
$  8 21
$  9  1
$  9  8
$  9 19
$ 10  4
$ 10  5
$ 10 17
$ 11  8
$ 11 11
$ 11 13
$ 11 17
$ 11 22
$ 12  1
$ 13  9
$ 13 12
$ 13 13
$ 14 22
$ 15 21
$ 16  6
$ 16 12
$ 17  7
$ 17 13
$ 18 10
$ 18 14
$ 18 17
$ 19 20
$ 20 11
$ 21 19
$ 22  7
$ 22 12
$ 23  1
$ 23 21
$ 24 14
$ 24 20
$ 25  7
$ 25 14
$ 26  2
$ 26  6
$ 27  2
$ 27  3
$ 27  5
$ 27 10
$ 27 12
$ 27 13
$ 28 22
$ 29  1
$ 29 15
$ 29 19
$ 30  2
$ 30 13
$ 30 20
$ 31  7
$ 31  8
$ 31 18
$ 32  1
$ 32  6
$ 33  7
$ 33  8
$ 34  6
$ 34  9
$ 34 17
$ 35 22

